 vasp.6.4.3 19Mar24 (build Jul 01 2024 12:12:31) complex

 executed on             LinuxIFC date 2024.10.22  00:45:31

 INCAR:
   SYSTEM = BaZrO3
   PREC = Normal
   ENCUT = 400
   ISMEAR = 0
   SIGMA = 0.05
   IBRION = 2
   NSW = 500
   EDIFF = 1E-6
   LWAVE = .TRUE.
   LORBIT = 11
   NELM = 100

 POTCAR:    PAW_PBE Ba_sv 06Sep2000
 POTCAR:    PAW_PBE Zr_sv 04Jan2005
 POTCAR:    PAW_PBE O 08Apr2002
|           W    W    AA    RRRRR   N    N  II  N    N   GGGG   !!!           |
|           W    W   A  A   R    R  NN   N  II  NN   N  G    G  !!!           |
|           W    W  A    A  R    R  N N  N  II  N N  N  G       !!!           |
|           W WW W  AAAAAA  RRRRR   N  N N  II  N  N N  G  GGG   !            |
|           WW  WW  A    A  R   R   N   NN  II  N   NN  G    G                |
|           W    W  A    A  R    R  N    N  II  N    N   GGGG   !!!           |
|     For optimal performance we recommend to set                             |
|       NCORE = 2 up to number-of-cores-per-socket                            |
|     This setting can greatly improve the performance of VASP for DFT.       |
|     The default, NCORE=1 might be grossly inefficient on modern             |
|     multi-core architectures or massively parallel machines. Do your        |
|     Unfortunately you need to use the default for GW and RPA                |
|     calculations (for HF NCORE is supported but not extensively tested      |
|     yet).                                                                   |

   TITEL  = PAW_PBE Ba_sv 06Sep2000
   POMASS =  137.327; ZVAL   =   10.000    mass and valenz
   ENMAX  =  187.181; ENMIN  =  140.386 eV

   TITEL  = PAW_PBE Zr_sv 04Jan2005
   POMASS =   91.224; ZVAL   =   12.000    mass and valenz
   ENMAX  =  229.898; ENMIN  =  172.424 eV

   TITEL  = PAW_PBE O 08Apr2002
   POMASS =   16.000; ZVAL   =    6.000    mass and valenz
   ENMAX  =  400.000; ENMIN  =  300.000 eV

  PAW_PBE Ba_sv 06Sep2000               :
  PAW_PBE Zr_sv 04Jan2005               :
  PAW_PBE O 08Apr2002                   :

 POSCAR: Ba Zr O
  positions in cartesian coordinates

 exchange-correlation table for PE
   RHO(1)=    0.500       N(1)  =     2000
   RHO(2)=  100.500       N(2)  =     4000

 VTST: version 4.1, (05/19/21)

 CHAIN: initializing optimizer

 OPT: Using VASP Conjugate-Gradient optimizer
 CHAIN: Read ICHAIN            0

 POSCAR: Ba Zr O
  positions in cartesian coordinates

 ion  position               nearest neighbor table
   1  0.000  0.000  0.000-   3 2.96   4 2.96   5 2.96   4 2.96   5 2.96   3 2.96   5 2.96   5 2.96
                             3 2.96   4 2.96   4 2.96   3 2.96   2 3.63   2 3.63   2 3.63   2 3.63
   2  0.500  0.500  0.500-   3 2.10   4 2.10   5 2.10   3 2.10   4 2.10   5 2.10   1 3.63   1 3.63
                             1 3.63   1 3.63   1 3.63   1 3.63   1 3.63   1 3.63
   3  0.500  0.500  0.000-   2 2.10   2 2.10   1 2.96   1 2.96   1 2.96   1 2.96
   4  0.500  0.000  0.500-   2 2.10   2 2.10   1 2.96   1 2.96   1 2.96   1 2.96
   5  0.000  0.500  0.500-   2 2.10   2 2.10   1 2.96   1 2.96   1 2.96   1 2.96

  LATTYP: Found a simple cubic cell.
 ALAT       =     4.1920000000

  Lattice vectors:

 A1 = (   4.1920000000,   0.0000000000,   0.0000000000)
 A2 = (   0.0000000000,   4.1920000000,   0.0000000000)
 A3 = (   0.0000000000,   0.0000000000,   4.1920000000)

Analysis of symmetry for initial positions (statically):
 Subroutine PRICEL returns:
 Original cell was already a primitive cell.

 Routine SETGRP: Setting up the symmetry group for a
 simple cubic supercell.

 Subroutine GETGRP returns: Found 48 space group operations
 (whereof 48 operations were pure point group operations)
 out of a pool of 48 trial point group operations.

The static configuration has the point symmetry O_h .

Analysis of symmetry for dynamics (positions and initial velocities):
 Subroutine PRICEL returns:
 Original cell was already a primitive cell.

 Routine SETGRP: Setting up the symmetry group for a
 simple cubic supercell.

 Subroutine GETGRP returns: Found 48 space group operations
 (whereof 48 operations were pure point group operations)
 out of a pool of 48 trial point group operations.

The dynamic configuration has the point symmetry O_h .

 Subroutine INISYM returns: Found 48 space group operations
 (whereof 48 operations are pure point group operations),
 and found     1 'primitive' translations

                                     Primitive cell

  volume of cell :      73.6654

  direct lattice vectors                    reciprocal lattice vectors
     4.192000000  0.000000000  0.000000000     0.238549618  0.000000000  0.000000000
     0.000000000  4.192000000  0.000000000     0.000000000  0.238549618  0.000000000
     0.000000000  0.000000000  4.192000000     0.000000000  0.000000000  0.238549618

  length of vectors
     4.192000000  4.192000000  4.192000000     0.238549618  0.238549618  0.238549618

  position of ions in fractional coordinates (direct lattice)
     0.000000000  0.000000000  0.000000000
     0.500000000  0.500000000  0.500000000
     0.500000000  0.500000000  0.000000000
     0.500000000  0.000000000  0.500000000
     0.000000000  0.500000000  0.500000000

  ion indices of the primitive-cell ions
   primitive index   ion index
                 1           1
                 2           2
                 3           3
                 4           4
                 5           5

 KPOINTS: Automatic mesh

Automatic generation of k-mesh.
 Grid dimensions read from file:
 generate k-points for:    4    4    4

 Generating k-lattice:

  Cartesian coordinates                     Fractional coordinates (reciprocal lattice)
     0.059637405  0.000000000  0.000000000     0.250000000  0.000000000  0.000000000
     0.000000000  0.059637405  0.000000000     0.000000000  0.250000000  0.000000000
     0.000000000  0.000000000  0.059637405     0.000000000  0.000000000  0.250000000

  Length of vectors
     0.059637405  0.059637405  0.059637405

  Shift w.r.t. Gamma in fractional coordinates (k-lattice)
     0.000000000  0.000000000  0.000000000

 Subroutine IBZKPT returns following result:

 Found     10 irreducible k-points:

 Following reciprocal coordinates:
            Coordinates               Weight
  0.000000  0.000000  0.000000      1.000000
  0.250000  0.000000  0.000000      6.000000
  0.500000  0.000000  0.000000      3.000000
  0.250000  0.250000  0.000000     12.000000
  0.500000  0.250000  0.000000     12.000000
  0.500000  0.500000  0.000000      3.000000
  0.250000  0.250000  0.250000      8.000000
  0.500000  0.250000  0.250000     12.000000
  0.500000  0.500000  0.250000      6.000000
  0.500000  0.500000  0.500000      1.000000

 Following cartesian coordinates:
            Coordinates               Weight
  0.000000  0.000000  0.000000      1.000000
  0.059637  0.000000  0.000000      6.000000
  0.119275  0.000000  0.000000      3.000000
  0.059637  0.059637  0.000000     12.000000
  0.119275  0.059637  0.000000     12.000000
  0.119275  0.119275  0.000000      3.000000
  0.059637  0.059637  0.059637      8.000000
  0.119275  0.059637  0.059637     12.000000
  0.119275  0.119275  0.059637      6.000000
  0.119275  0.119275  0.119275      1.000000

 SYSTEM =  BaZrO3
 POSCAR =  Ba Zr O

 Startparameter for this run:
   NWRITE =      2    write-flag & timer
   PREC   = normal    normal or accurate (medium, high low for compatibility)
   ISTART =      1    job   : 0-new  1-cont  2-samecut
   ICHARG =      0    charge: 1-file 2-atom 10-const
   ISPIN  =      1    spin polarized calculation?
   LNONCOLLINEAR =      F non collinear calculations
   LSORBIT =      F    spin-orbit coupling
   INIWAV =      1    electr: 0-lowe 1-rand  2-diag
   LASPH  =      F    aspherical Exc in radial PAW
 Electronic Relaxation 1
   ENCUT  =  400.0 eV  29.40 Ry    5.42 a.u.   6.84  6.84  6.84*2*pi/ulx,y,z
   ENINI  =  400.0     initial cutoff
   ENAUG  =  605.4 eV  augmentation charge cutoff
   NELM   =    100;   NELMIN=  2; NELMDL=  0     # of ELM steps
   EDIFF  = 0.1E-05   stopping-criterion for ELM
   LREAL  =      F    real-space projection
   NLSPLINE    = F    spline interpolate recip. space projectors
   LCOMPAT=      F    compatible to vasp.4.4
   GGA_COMPAT  = T    GGA compatible to vasp.4.4-vasp.4.6
   LMAXPAW     = -100 max onsite density
   LMAXMIX     =    2 max onsite mixed and CHGCAR
   VOSKOWN=      0    Vosko Wilk Nusair interpolation
   ROPT   =    0.00000   0.00000   0.00000
 Ionic relaxation
   EDIFFG = 0.1E-04   stopping-criterion for IOM
   NSW    =    500    number of steps for IOM
   NBLOCK =      1;   KBLOCK =    500    inner block; outer block
   IBRION =      2    ionic relax: 0-MD 1-quasi-New 2-CG
   NFREE  =      1    steps in history (QN), initial steepest desc. (CG)
   ISIF   =      2    stress and relaxation
   IWAVPR =     11    prediction:  0-non 1-charg 2-wave 3-comb
   ISYM   =      2    0-nonsym 1-usesym 2-fastsym
   LCORR  =      T    Harris-Foulkes like correction to forces

   POTIM  = 0.5000    time-step for ionic-motion
   TEIN   =    0.0    initial temperature
   TEBEG  =    0.0;   TEEND  =   0.0 temperature during run
   SMASS  =  -3.00    Nose mass-parameter (am)
   estimated Nose-frequenzy (Omega)   =  0.10E-29 period in steps = 0.13E+47 mass=  -0.402E-27a.u.
   SCALEE = 1.0000    scale energy and forces
   NPACO  =    256;   APACO  = 10.0  distance and # of slots for P.C.
   PSTRESS=    0.0 pullay stress

  Mass of Ions in am
   POMASS = 137.33 91.22 16.00
  Ionic Valenz
   ZVAL   =  10.00 12.00  6.00
  Atomic Wigner-Seitz radii
  virtual crystal weights
   VCA    =   1.00  1.00  1.00
   NELECT =      40.0000    total number of electrons
   NUPDOWN=      -1.0000    fix difference up-down

 DOS related values:
   EMIN   =  10.00;   EMAX   =-10.00  energy-range for DOS
   EFERMI =   0.00;   METHOD = LEGACY
   ISMEAR =     0;   SIGMA  =   0.05  broadening in eV -4-tet -1-fermi 0-gaus

 Electronic relaxation 2 (details)
   IALGO  =     38    algorithm
   LDIAG  =      T    sub-space diagonalisation (order eigenvalues)
   LSUBROT=      F    optimize rotation matrix (better conditioning)
   TURBO    =      0    0=normal 1=particle mesh
   IRESTART =      0    0=no restart 2=restart with 2 vectors
   NREBOOT  =      0    no. of reboots
   NMIN     =      0    reboot dimension
   EREF     =   0.00    reference energy to select bands
   IMIX   =      4    mixing-type and parameters
     AMIX     =   0.40;   BMIX     =  1.00
     AMIX_MAG =   1.60;   BMIX_MAG =  1.00
     AMIN     =   0.10
     WC   =   100.;   INIMIX=   1;  MIXPRE=   1;  MAXMIX= -45

 Intra band minimization:
   WEIMIN = 0.0010     energy-eigenvalue tresh-hold
   EBREAK =  0.10E-07  absolut break condition
   DEPER  =   0.30     relativ break condition

   TIME   =   0.40     timestep for ELM

  volume/ion in A,a.u.               =      14.73        99.42
  Fermi-wavevector in a.u.,A,eV,Ry     =   1.335591  2.523901 24.270125  1.783804
  Thomas-Fermi vector in A             =   2.464284

 Write flags
   LWAVE        =      T    write WAVECAR
   LDOWNSAMPLE  =      F    k-point downsampling of WAVECAR
   LCHARG       =      T    write CHGCAR
   LVTOT        =      F    write LOCPOT, total local potential
   LVHAR        =      F    write LOCPOT, Hartree potential only
   WRT_POTENTIAL= false  ! write potential to hdf5 file
   LELF         =      F    write electronic localiz. function (ELF)
   LORBIT       =     11    0 simple, 1 ext, 2 COOP (PROOUT), +10 PAW based schemes

 Dipole corrections
   LMONO      =      F    monopole corrections only (constant potential shift)
   LDIPOL     =      F    correct potential (dipole corrections)
   IDIPOL     =      0    1-x, 2-y, 3-z, 4-all directions
   EPSILON    =  1.0000000 bulk dielectric constant
   LVACPOTAV  =      F  vacuum potentials using an averaging scheme for the charge density
   VACPOTFLAT =  0.1000000 required flatness to determine vacuum potential
 Exchange correlation treatment:
   GGA     = PE    functional components
   XC_C    = 1    coefficients multiplying the functional components
   VOSKOWN =     0    Vosko Wilk Nusair interpolation
   LHFCALC =     F    Hartree Fock is set to
   LHFONE  =     F    Hartree Fock one center treatment
   AEXX    =    0.0000 exact exchange contribution

 Parameters of functionals:
   PE:
     No parameter

 Van der Waals corrections
   IVDW    =     0    specifies the selected vdW correction

 Linear response parameters
   LEPSILON=     F    determine dielectric tensor
   LRPA    =     F    only Hartree local field effects (RPA)
   LNABLA  =     F    use nabla operator in PAW spheres
   LVEL    =     F    velocity operator in full k-point grid
   CSHIFT  =0.1000    complex shift for real part using Kramers Kronig
   OMEGAMAX=  -1.0    maximum frequency
   DEG_THRESHOLD= 0.2000000E-02 threshold for treating states as degnerate
   RTIME   =   -0.100 relaxation time in fs
  (WPLASMAI=    0.000 imaginary part of plasma frequency in eV, 0.658/RTIME)
   DFIELD  = 0.0000000 0.0000000 0.0000000 field for delta impulse in time

  Optional k-point grid parameters
   LKPOINTS_OPT  =     F    use optional k-point grid
   KPOINTS_OPT_MODE=     1    mode for optional k-point grid

 Orbital magnetization related:
   ORBITALMAG=     F  switch on orbital magnetization
   LCHIMAG   =     F  perturbation theory with respect to B field
   DQ        =  0.001000  dq finite difference perturbation B field
   LLRAUG    =     F  two centre corrections for induced B field
   LBONE     =     F  B-component reconstruction in AE one-centre
   LVGVCALC  =     T  calculate vGv susceptibility
   LVGVAPPL  =     F  apply vGv susceptibility instead of pGv for G=0

 Random number generation:
   RANDOM_GENERATOR = DEFAULT
   PCG_SEED         = not used

 conjugate gradient relaxation of ions
 charge density and potential will be updated during run
 non-spin polarized calculation
 Variant of blocked Davidson
 Davidson routine will perform the subspace rotation
 perform sub-space diagonalisation
    after iterative eigenvector-optimisation
 modified Broyden-mixing scheme, WC =      100.0
 initial mixing is a Kerker type mixing with AMIX =  0.4000 and BMIX =      1.0000
 Hartree-type preconditioning will be used
 using additional bands            4
 reciprocal scheme for non local part
 use partial core corrections
 calculate Harris-corrections to forces
   (improved forces if not selfconsistent)
 use gradient corrections
 use of overlap-Matrix (Vanderbilt PP)
 Gauss-broadening in eV      SIGMA  =   0.05

  energy-cutoff  :      400.00
  volume of cell :       73.67
      direct lattice vectors                 reciprocal lattice vectors
     4.192000000  0.000000000  0.000000000     0.238549618  0.000000000  0.000000000
     0.000000000  4.192000000  0.000000000     0.000000000  0.238549618  0.000000000
     0.000000000  0.000000000  4.192000000     0.000000000  0.000000000  0.238549618

[...]

 old parameters found on file WAVECAR:
  energy-cutoff  :      400.00
  volume of cell :       73.67
      direct lattice vectors                 reciprocal lattice vectors
     4.192000000  0.000000000  0.000000000     0.238549618  0.000000000  0.000000000
     0.000000000  4.192000000  0.000000000     0.000000000  0.238549618  0.000000000
     0.000000000  0.000000000  4.192000000     0.000000000  0.000000000  0.238549618

  length of vectors

 k-points in units of 2pi/SCALE and weight: Automatic mesh
   0.00000000  0.00000000  0.00000000       0.016
   0.05963740  0.00000000  0.00000000       0.094
   0.11927481  0.00000000  0.00000000       0.047
   0.05963740  0.05963740  0.00000000       0.188
   0.11927481  0.05963740  0.00000000       0.188
   0.11927481  0.11927481  0.00000000       0.047
   0.05963740  0.05963740  0.05963740       0.125
   0.11927481  0.05963740  0.05963740       0.188
   0.11927481  0.11927481  0.05963740       0.094
   0.11927481  0.11927481  0.11927481       0.016

 k-points in reciprocal lattice and weights: Automatic mesh
   0.00000000  0.00000000  0.00000000       0.016
   0.25000000  0.00000000  0.00000000       0.094
   0.50000000  0.00000000  0.00000000       0.047
   0.25000000  0.25000000  0.00000000       0.188
   0.50000000  0.25000000  0.00000000       0.188
   0.50000000  0.50000000  0.00000000       0.047
   0.25000000  0.25000000  0.25000000       0.125
   0.50000000  0.25000000  0.25000000       0.188
   0.50000000  0.50000000  0.25000000       0.094
   0.50000000  0.50000000  0.50000000       0.016

 position of ions in fractional coordinates (direct lattice)
   0.00000000  0.00000000  0.00000000
   0.50000000  0.50000000  0.50000000
   0.50000000  0.50000000  0.00000000
   0.50000000  0.00000000  0.50000000
   0.00000000  0.50000000  0.50000000

 position of ions in cartesian coordinates  (Angst):
   0.00000000  0.00000000  0.00000000
   2.09600000  2.09600000  2.09600000
   2.09600000  2.09600000  0.00000000
   2.09600000  0.00000000  2.09600000
   0.00000000  2.09600000  2.09600000

 k-point     1 :   0.0000 0.0000 0.0000  plane waves:    1357
 k-point     2 :   0.2500 0.0000 0.0000  plane waves:    1334
 k-point     3 :   0.5000 0.0000 0.0000  plane waves:    1342
 k-point     4 :   0.2500 0.2500 0.0000  plane waves:    1344
 k-point     5 :   0.5000 0.2500 0.0000  plane waves:    1328
 k-point     6 :   0.5000 0.5000 0.0000  plane waves:    1356
 k-point     7 :   0.2500 0.2500 0.2500  plane waves:    1346
 k-point     8 :   0.5000 0.2500 0.2500  plane waves:    1332
 k-point     9 :   0.5000 0.5000 0.2500  plane waves:    1348
 k-point    10 :   0.5000 0.5000 0.5000  plane waves:    1328

 maximum and minimum number of plane-waves per node :      1357     1328

 maximum number of plane-waves:      1357
 maximum index in each direction:
   IXMAX=    6   IYMAX=    6   IZMAX=    6
   IXMIN=   -7   IYMIN=   -7   IZMIN=   -7

 serial   3D FFT for wavefunctions
 parallel 3D FFT for charge:
    minimum data exchange during FFTs selected (reduces bandwidth)

 Broyden mixing: mesh for mixing (old mesh)
   NGX = 13   NGY = 13   NGZ = 13
  (NGX  = 48   NGY  = 48   NGZ  = 48)
  gives a total of   2197 points

 charge density for first step will be calculated from the start-wavefunctions

 Maximum index for augmentation-charges         1451 (set IRDMAX)

 initial charge from wavefunction
 First call to EWALD:  gamma=   0.423
 Maximum number of real-space cells 3x 3x 3
 Maximum number of reciprocal cells 3x 3x 3

--------------------------------------- Ionic step        1  -------------------------------------------

--------------------------------------- Iteration      1(   1)  ---------------------------------------

 eigenvalue-minimisations  :   240
 total energy-change (2. order) :-0.4173262E+02  (-0.4410226E-07)
 number of electron      40.0000103 magnetization
 augmentation part        0.4122241 magnetization

 Broyden mixing:
  rms(total) = 0.21694E-03    rms(broyden)= 0.21692E-03
  rms(prec ) = 0.30409E-03
  weight for this iteration     100.00

 Free energy of the ion-electron system (eV)
  alpha Z        PSCENC =       240.34259355
  Ewald energy   TEWEN  =     -2693.37944630
  -Hartree energ DENC   =      -710.49736349
  -exchange      EXHF   =         0.00000000
  -V(xc)+E(xc)   XCENC  =       161.74675365
  PAW double counting   =      4638.84566200    -4625.63090460
  entropy T*S    EENTRO =        -0.00000000
  eigenvalues    EBANDS =      -335.01852475
  atomic energy  EATOM  =      3281.85861458
  Solvation  Ediel_sol  =         0.00000000
  free energy    TOTEN  =       -41.73261534 eV

  energy without entropy =      -41.73261534  energy(sigma->0) =      -41.73261534

--------------------------------------- Iteration      1(   2)  ---------------------------------------

 eigenvalue-minimisations  :   240
 total energy-change (2. order) : 0.8022380E-07  (-0.1112922E-07)
 number of electron      40.0000103 magnetization
 augmentation part        0.4122241 magnetization

 Free energy of the ion-electron system (eV)
  alpha Z        PSCENC =       240.34259355
  Ewald energy   TEWEN  =     -2693.37944630
  -Hartree energ DENC   =      -710.49830959
  -exchange      EXHF   =         0.00000000
  -V(xc)+E(xc)   XCENC  =       161.74686005
  PAW double counting   =      4638.91468294    -4625.70018966
  entropy T*S    EENTRO =        -0.00000000
  eigenvalues    EBANDS =      -335.01742084
  atomic energy  EATOM  =      3281.85861458
  Solvation  Ediel_sol  =         0.00000000
  free energy    TOTEN  =       -41.73261526 eV

  energy without entropy =      -41.73261526  energy(sigma->0) =      -41.73261526

 average (electrostatic) potential at core
  the test charge radii are     1.2192  1.0638  0.7215
  (the norm of the test charge is              1.0000)
       1 -33.5825       2 -78.1497       3 -69.3997       4 -69.3997       5 -69.3997

 E-fermi :   4.0191     XC(G=0): -10.7668     alpha+bet :-13.8810

 val. band max:        3.7793110175   @ k =   0.5000   0.5000   0.5000
 cond. band min:       6.9712075464   @ k =   0.0000   0.0000   0.0000
 fundamental gap:      3.1918965289
 Fermi energy:         4.0191222146

 k-point     1 :       0.0000    0.0000    0.0000
  band No.  band energies     occupation
      1     -43.2454      2.00000
      2     -21.5322      2.00000
      3     -21.4062      2.00000
      4     -21.4062      2.00000
      5     -21.4062      2.00000
      6     -12.5893      2.00000
      7     -12.3105      2.00000
      8     -12.3105      2.00000
      9      -6.6672      2.00000
     10      -6.6672      2.00000
     11      -6.6672      2.00000
     12       2.3269      2.00000
     13       2.3269      2.00000
     14       2.3269      2.00000
     15       2.7943      2.00000
     16       2.7943      2.00000
     17       2.7943      2.00000
     18       3.5529      2.00000
     19       3.5529      2.00000
     20       3.5529      2.00000
     21       6.9712      0.00000
     22       6.9712      0.00000
     23       6.9712      0.00000
     24       8.4411      0.00000

[...]

 k-point    10 :       0.5000    0.5000    0.5000
  band No.  band energies     occupation
      1     -43.2354      2.00000
      2     -21.6392      2.00000
      3     -21.6392      2.00000
      4     -21.6392      2.00000
      5     -21.4029      2.00000
      6     -11.3751      2.00000
      7     -11.3751      2.00000
      8     -11.3751      2.00000
      9      -7.1540      2.00000
     10      -7.1540      2.00000
     11      -7.1540      2.00000
     12       0.0480      2.00000
     13       0.0480      2.00000
     14       0.3020      2.00000
     15       1.2422      2.00000
     16       1.2422      2.00000
     17       1.2422      2.00000
     18       3.7793      2.00000
     19       3.7793      2.00000
     20       3.7793      2.00000
     21       9.7665      0.00000
     22       9.7665      0.00000
     23       9.7665      0.00000
     24      10.7805      0.00000

 soft charge-density along one line, spin component           1
         0         1         2         3         4         5         6         7         8         9
 total charge-density along one line

------------------------ aborting loop because EDIFF is reached ----------------------------------------

 total charge

# of ion       s       p       d       tot
    1        2.001   5.635   0.270   7.906
    2        2.199   6.088   1.427   9.714
    3        1.587   3.501   0.000   5.088
    4        1.587   3.501   0.000   5.088
    5        1.587   3.501   0.000   5.088
tot          8.960  22.227   1.697  32.884

  FORCE on cell =-STRESS in cart. coord.  units (eV):
  Direction    XX          YY          ZZ          XY          YZ          ZX
  Alpha Z   240.34259   240.34259   240.34259
  Ewald    -897.79392  -897.79392  -897.79392     0.00000    -0.00000    -0.00000
  Hartree   236.83263   236.83263   236.83263    -0.00000    -0.00000    -0.00000
  E(xc)    -175.90529  -175.90529  -175.90529     0.00000    -0.00000    -0.00000
  Local     -61.89596   -61.89596   -61.89596     0.00000    -0.00000     0.00000
  n-local  -125.28731  -120.18783  -112.56898     0.09425     0.12871     0.04376
  augment    13.52897    13.52897    13.52897    -0.00000    -0.00000    -0.00000
  Kinetic   759.16889   767.44186   767.44680    -2.21922    -2.55153    -0.95666
  Fock        0.00000     0.00000     0.00000     0.00000     0.00000     0.00000
  Total       0.44683     0.44683     0.44683    -0.00000     0.00000    -0.00000
  in kB       9.71825     9.71825     9.71825    -0.00000     0.00000    -0.00000

 VOLUME and BASIS-vectors are now :
  energy-cutoff  :      400.00
  volume of cell :       73.67
      direct lattice vectors                 reciprocal lattice vectors
     4.192000000  0.000000000  0.000000000     0.238549618  0.000000000  0.000000000
     0.000000000  4.192000000  0.000000000     0.000000000  0.238549618  0.000000000
     0.000000000  0.000000000  4.192000000     0.000000000  0.000000000  0.238549618

  length of vectors
     4.192000000  4.192000000  4.192000000     0.238549618  0.238549618  0.238549618

 FORCES acting on ions
    electron-ion (+dipol)            ewald-force                    non-local-force                 convergence-correction
   -.139E-14 -.149E-14 -.857E-16   -.367E-14 -.107E-14 -.461E-14   -.155E-24 -.157E-24 -.113E-24   -.190E-13 -.144E-14 -.507E-14
   0.156E-12 -.186E-11 -.268E-11   0.536E-14 0.798E-14 0.754E-14   -.109E-23 0.508E-24 -.110E-23   0.528E-13 -.433E-15 0.107E-13
   0.173E-12 -.163E-11 -.535E-12   0.720E-14 0.306E-14 -.647E-14   -.236E-24 -.803E-24 0.505E-24   0.192E-13 -.681E-14 -.113E-13
   0.175E-12 -.323E-14 -.224E-11   0.153E-15 -.939E-14 0.201E-14   0.444E-25 0.539E-24 0.251E-24   0.253E-13 -.112E-14 0.264E-14
   -.274E-14 0.174E-12 0.169E-12   -.906E-14 0.514E-15 0.200E-14   0.521E-24 0.113E-23 -.931E-24   -.339E-13 -.194E-14 0.647E-14
   0.500E-12 -.333E-11 -.528E-11   -.209E-16 0.110E-14 0.468E-15   -.913E-24 0.121E-23 -.139E-23   0.443E-13 -.117E-13 0.341E-14

 POSITION                                       TOTAL-FORCE (eV/Angst)
      0.00000      0.00000      0.00000        -0.000000     -0.000000     -0.000000
      2.09600      2.09600      2.09600         0.000000      0.000000     -0.000000
      2.09600      2.09600      0.00000         0.000000     -0.000000     -0.000000
      2.09600      0.00000      2.09600        -0.000000     -0.000000      0.000000
      0.00000      2.09600      2.09600        -0.000000      0.000000      0.000000
    total drift:                                0.000000     -0.000000     -0.000000

  FREE ENERGIE OF THE ION-ELECTRON SYSTEM (eV)
  free  energy   TOTEN  =       -41.73261526 eV

  energy  without entropy=      -41.73261526  energy(sigma->0) =      -41.73261526

 stress matrix after NEB project (eV)
      0.44683     -0.00000     -0.00000
     -0.00000      0.44683     -0.00000
      0.00000      0.00000      0.44683
  FORCES: max atom, RMS     0.000000    0.000000
  FORCE total and by dimension    0.000000    0.000000
  Stress total and by dimension    0.773931    0.446829

 reached required accuracy - stopping structural energy minimisation
 writing wavefunctions

 total charge

# of ion       s       p       d       tot
    1        2.001   5.635   0.270   7.906
    2        2.199   6.088   1.427   9.714
    3        1.587   3.501   0.000   5.088
    4        1.587   3.501   0.000   5.088
    5        1.587   3.501   0.000   5.088
tot          8.960  22.227   1.697  32.884